
n_res = 4;
rcap = [39, 35, 138, 150];
rtype = [1, 1, 2, 2];
n_tasks = 50;
modes =  [{1, 2, 3}, {4, 5, 6}, {7, 8, 9}, {10, 11, 12}, {13, 14, 15}, {16, 17, 18}, {19, 20, 21}, {22, 23, 24}, {25, 26, 27}, {28, 29, 30}, {31, 32, 33}, {34, 35, 36}, {37, 38, 39}, {40, 41, 42}, {43, 44, 45}, {46, 47, 48}, {49, 50, 51}, {52, 53, 54}, {55, 56, 57}, {58, 59, 60}, {61, 62, 63}, {64, 65, 66}, {67, 68, 69}, {70, 71, 72}, {73, 74, 75}, {76, 77, 78}, {79, 80, 81}, {82, 83, 84}, {85, 86, 87}, {88, 89, 90}, {91, 92, 93}, {94, 95, 96}, {97, 98, 99}, {100, 101, 102}, {103, 104, 105}, {106, 107, 108}, {109, 110, 111}, {112, 113, 114}, {115, 116, 117}, {118, 119, 120}, {121, 122, 123}, {124, 125, 126}, {127, 128, 129}, {130, 131, 132}, {133, 134, 135}, {136, 137, 138}, {139, 140, 141}, {142, 143, 144}, {145, 146, 147}, {148, 149, 150}];
succ =  [{13, 12, 11, 9, 8}, {13, 12, 11, 10, 8}, {13, 12, 9, 8}, {12, 11, 10, 8}, {24, 16, 14, 13, 12, 11}, {24, 19, 18, 17, 16, 13}, {24, 22, 19, 18, 17, 16, 14}, {24, 22, 20, 19, 18, 16, 14}, {10}, {22, 19, 18, 17, 15}, {22, 19, 18, 17}, {26, 21, 17}, {22, 21, 15}, {34, 27, 26, 25, 23, 21}, {34, 27, 26, 25, 23}, {34, 27, 26, 25, 23}, {25, 23, 20}, {34, 27, 23}, {26, 21}, {38, 34, 32, 29, 28, 27}, {36, 31, 30, 29, 28}, {26, 25}, {36, 31, 30, 28}, {38, 33, 31, 27}, {38, 37, 36, 31, 29}, {37, 36, 35, 33}, {41, 37, 36, 35}, {37, 35, 33}, {50, 42, 41, 39, 35}, {38, 37, 35}, {41, 32}, {50, 39, 35}, {50, 46, 43, 42, 41}, {49, 46, 45, 43, 37}, {49, 46, 45, 43, 40}, {49, 46, 44, 42}, {50, 39}, {50, 48, 45}, {48, 44}, {48, 44}, {49, 45}, {48, 45}, {44}, {47}, {47}, {48}, {}, {}, {}, {}];
n_opt = 150;
dur = [5, 7, 8, 3, 8, 10, 5, 5, 9, 4, 8, 10, 1, 1, 3, 4, 5, 10, 4, 5, 7, 1, 2, 6, 2, 7, 9, 2, 3, 6, 1, 6, 10, 2, 6, 9, 4, 5, 5, 7, 9, 9, 1, 9, 10, 5, 9, 9, 4, 7, 8, 1, 1, 10, 8, 9, 10, 4, 10, 10, 2, 6, 7, 3, 9, 10, 3, 4, 6, 3, 5, 6, 7, 8, 9, 4, 4, 5, 4, 4, 6, 2, 3, 9, 4, 4, 9, 1, 3, 6, 2, 2, 9, 7, 7, 8, 6, 9, 10, 5, 6, 9, 2, 4, 9, 4, 5, 9, 2, 3, 9, 4, 7, 8, 2, 3, 9, 2, 5, 7, 2, 3, 7, 4, 4, 7, 1, 7, 9, 4, 6, 10, 1, 5, 10, 3, 5, 5, 1, 7, 9, 1, 9, 9, 5, 7, 9, 3, 3, 6];
rreq = [|7, 4, 3, 3, 0, 0, 0, 5, 0, 7, 5, 4, 0, 5, 3, 7, 0, 0, 7, 0, 0, 0, 2, 2, 1, 1, 0, 8, 0, 6, 9, 8, 6, 6, 5, 3, 7, 6, 5, 7, 0, 0, 10, 0, 0, 0, 5, 0, 7, 6, 0, 0, 6, 0, 8, 0, 0, 0, 8, 0, 0, 0, 1, 0, 0, 0, 7, 0, 6, 0, 6, 4, 5, 0, 0, 0, 3, 3, 7, 0, 4, 4, 3, 2, 0, 0, 0, 9, 6, 0, 0, 4, 0, 0, 0, 0, 0, 0, 2, 0, 0, 0, 8, 7, 5, 8, 4, 0, 6, 0, 0, 5, 4, 0, 0, 8, 8, 0, 1, 0, 0, 2, 0, 0, 2, 2, 0, 0, 0, 5, 3, 0, 0, 4, 2, 7, 0, 0, 7, 0, 0, 5, 3, 0, 0, 0, 10, 0, 2, 0
 |0, 0, 0, 0, 7, 6, 4, 0, 2, 0, 0, 0, 8, 0, 0, 0, 3, 3, 0, 8, 6, 3, 0, 0, 0, 0, 5, 0, 8, 0, 0, 0, 0, 0, 0, 0, 0, 0, 0, 0, 8, 7, 0, 8, 6, 5, 0, 4, 0, 0, 4, 7, 0, 4, 0, 8, 8, 7, 0, 2, 6, 4, 0, 9, 8, 7, 0, 2, 0, 5, 0, 0, 0, 5, 5, 9, 0, 0, 0, 3, 0, 0, 0, 0, 7, 5, 3, 0, 0, 1, 9, 0, 9, 6, 5, 2, 7, 6, 0, 8, 6, 6, 0, 0, 0, 0, 0, 2, 0, 4, 3, 0, 0, 4, 7, 0, 0, 7, 0, 7, 6, 0, 6, 6, 0, 0, 4, 4, 4, 0, 0, 4, 7, 0, 0, 0, 3, 1, 0, 7, 4, 0, 0, 6, 7, 7, 0, 8, 0, 6
 |0, 0, 0, 0, 0, 3, 6, 6, 0, 0, 6, 0, 3, 3, 1, 0, 0, 0, 0, 5, 0, 0, 0, 8, 4, 0, 0, 8, 4, 0, 0, 0, 2, 0, 0, 0, 7, 5, 0, 7, 0, 4, 0, 6, 0, 0, 9, 9, 0, 0, 0, 0, 5, 5, 9, 0, 0, 8, 0, 0, 6, 5, 4, 10, 5, 0, 0, 0, 8, 0, 0, 0, 9, 4, 3, 0, 5, 4, 0, 3, 2, 0, 0, 0, 8, 0, 0, 0, 0, 7, 0, 0, 3, 6, 0, 5, 6, 6, 0, 3, 3, 0, 0, 0, 0, 4, 0, 4, 7, 6, 6, 7, 5, 0, 5, 4, 0, 5, 0, 4, 0, 0, 2, 6, 0, 0, 6, 4, 0, 4, 4, 0, 7, 6, 0, 5, 5, 0, 0, 0, 5, 7, 7, 7, 0, 6, 0, 0, 0, 9
 |8, 8, 8, 7, 5, 0, 0, 0, 6, 3, 0, 2, 0, 0, 0, 10, 7, 6, 3, 0, 1, 7, 6, 0, 0, 6, 4, 0, 0, 8, 8, 8, 0, 7, 4, 1, 0, 0, 5, 0, 4, 0, 9, 0, 7, 7, 0, 0, 7, 7, 5, 4, 0, 0, 0, 6, 5, 0, 4, 3, 0, 0, 0, 0, 0, 4, 8, 6, 0, 4, 4, 3, 0, 0, 0, 9, 0, 0, 9, 0, 0, 6, 6, 6, 0, 4, 1, 2, 1, 0, 8, 5, 0, 0, 4, 0, 0, 0, 7, 0, 0, 4, 9, 5, 2, 0, 8, 0, 0, 0, 0, 0, 0, 3, 0, 0, 5, 0, 5, 0, 7, 7, 0, 0, 8, 7, 0, 0, 3, 0, 0, 6, 0, 0, 5, 0, 0, 2, 10, 8, 0, 0, 0, 0, 6, 0, 2, 5, 3, 0|];